asp/input/in_40_20_10_2.lp
#const n = 40.
#const k = 20.
#const h = 10.
tile(1,7,6).
tile(2,19,10).
tile(3,15,1).
tile(4,11,12).
tile(5,12,1).
tile(6,20,4).
tile(7,12,20).
tile(8,2,11).
tile(9,6,6).
tile(10,17,20).
tile(11,14,17).
tile(12,4,18).
tile(13,2,2).
tile(14,15,14).
tile(15,7,3).
tile(16,18,10).
tile(17,19,9).
tile(18,6,14).
tile(19,20,9).
tile(20,1,11).
tile(21,12,20).
tile(22,5,18).
tile(23,14,1).
tile(24,10,5).
tile(25,6,5).
tile(26,5,12).
tile(27,7,12).
tile(28,9,20).
tile(29,11,7).
tile(30,10,19).
tile(31,2,9).
tile(32,1,13).
tile(33,3,7).
tile(34,17,16).
tile(35,5,12).
tile(36,4,15).
tile(37,12,12).
tile(38,6,11).
tile(39,12,12).
tile(40,16,11).
