instances/in_40_20_10_2.dzn
n = 40;
k = 20;
h = 10;
tiles = array2d(1..n, 1..2,
[ 7,6
, 19,10
, 15,1
, 11,12
, 12,1
, 20,4
, 12,20
, 2,11
, 6,6
, 17,20
, 14,17
, 4,18
, 2,2
, 15,14
, 7,3
, 18,10
, 19,9
, 6,14
, 20,9
, 1,11
, 12,20
, 5,18
, 14,1
, 10,5
, 6,5
, 5,12
, 7,12
, 9,20
, 11,7
, 10,19
, 2,9
, 1,13
, 3,7
, 17,16
, 5,12
, 4,15
, 12,12
, 6,11
, 12,12
, 16,11
]);